p edge 237 465
e 1 48
e 2 48
e 2 60
e 3 4
e 3 48
e 3 62
e 4 48
e 4 62
e 5 48
e 6 48
e 6 79
e 7 8
e 7 48
e 7 81
e 8 48
e 8 81
e 9 48
e 10 48
e 10 93
e 11 12
e 11 48
e 11 95
e 12 48
e 12 95
e 13 48
e 14 48
e 14 112
e 15 16
e 15 48
e 15 114
e 16 48
e 16 114
e 17 48
e 18 48
e 18 126
e 19 20
e 19 48
e 19 128
e 20 48
e 20 128
e 21 48
e 22 48
e 22 140
e 23 24
e 23 48
e 23 142
e 24 48
e 24 142
e 25 48
e 26 48
e 26 154
e 27 28
e 27 48
e 27 156
e 28 48
e 28 156
e 29 48
e 30 48
e 30 173
e 31 32
e 31 48
e 31 175
e 32 48
e 32 175
e 33 48
e 34 48
e 34 187
e 35 36
e 35 48
e 35 189
e 36 48
e 36 189
e 37 48
e 38 48
e 38 206
e 39 40
e 39 48
e 39 208
e 40 48
e 40 208
e 41 42
e 41 43
e 41 44
e 41 45
e 41 46
e 41 47
e 41 48
e 41 209
e 41 210
e 41 211
e 41 212
e 41 213
e 41 214
e 41 215
e 41 216
e 41 217
e 41 223
e 41 225
e 41 236
e 41 237
e 42 48
e 42 209
e 42 210
e 42 211
e 42 212
e 42 213
e 42 214
e 42 215
e 42 216
e 42 217
e 43 237
e 44 48
e 44 209
e 44 210
e 44 211
e 44 212
e 44 213
e 44 214
e 44 215
e 44 216
e 44 217
e 44 236
e 45 48
e 45 209
e 45 210
e 45 211
e 45 212
e 45 213
e 45 214
e 45 215
e 45 216
e 45 217
e 45 223
e 46 47
e 46 48
e 46 209
e 46 210
e 46 211
e 46 212
e 46 213
e 46 214
e 46 215
e 46 216
e 46 217
e 46 225
e 47 48
e 47 209
e 47 210
e 47 211
e 47 212
e 47 213
e 47 214
e 47 215
e 47 216
e 47 217
e 47 225
e 48 49
e 48 50
e 48 51
e 48 52
e 48 53
e 48 54
e 48 58
e 48 60
e 48 62
e 48 63
e 48 64
e 48 65
e 48 66
e 48 67
e 48 68
e 48 69
e 48 70
e 48 71
e 48 72
e 48 73
e 48 77
e 48 79
e 48 81
e 48 82
e 48 83
e 48 84
e 48 85
e 48 86
e 48 87
e 48 91
e 48 93
e 48 95
e 48 96
e 48 97
e 48 98
e 48 99
e 48 100
e 48 101
e 48 102
e 48 103
e 48 104
e 48 105
e 48 106
e 48 110
e 48 112
e 48 114
e 48 115
e 48 116
e 48 117
e 48 118
e 48 119
e 48 120
e 48 124
e 48 126
e 48 128
e 48 129
e 48 130
e 48 131
e 48 132
e 48 133
e 48 134
e 48 138
e 48 140
e 48 142
e 48 143
e 48 144
e 48 145
e 48 146
e 48 147
e 48 148
e 48 152
e 48 154
e 48 156
e 48 157
e 48 158
e 48 159
e 48 160
e 48 161
e 48 162
e 48 163
e 48 164
e 48 165
e 48 166
e 48 167
e 48 171
e 48 173
e 48 175
e 48 176
e 48 177
e 48 178
e 48 179
e 48 180
e 48 181
e 48 185
e 48 187
e 48 189
e 48 190
e 48 191
e 48 192
e 48 193
e 48 194
e 48 195
e 48 196
e 48 197
e 48 198
e 48 199
e 48 200
e 48 204
e 48 206
e 48 208
e 48 209
e 48 210
e 48 211
e 48 212
e 48 213
e 48 214
e 48 215
e 48 216
e 48 217
e 48 223
e 48 225
e 48 226
e 48 227
e 48 228
e 48 229
e 48 230
e 48 231
e 48 232
e 48 233
e 48 234
e 48 235
e 48 236
e 51 52
e 51 226
e 52 226
e 53 54
e 55 237
e 56 237
e 57 237
e 63 64
e 63 65
e 63 66
e 63 67
e 64 65
e 64 66
e 64 67
e 65 66
e 65 67
e 66 67
e 70 71
e 70 227
e 71 227
e 72 73
e 74 237
e 75 237
e 76 237
e 84 85
e 84 228
e 85 228
e 86 87
e 88 237
e 89 237
e 90 237
e 97 98
e 97 99
e 97 100
e 97 101
e 98 99
e 98 100
e 98 101
e 99 100
e 99 101
e 100 101
e 103 104
e 103 229
e 104 229
e 105 106
e 107 237
e 108 237
e 109 237
e 117 118
e 117 230
e 118 230
e 119 120
e 121 237
e 122 237
e 123 237
e 131 132
e 131 231
e 132 231
e 133 134
e 135 237
e 136 237
e 137 237
e 145 146
e 145 232
e 146 232
e 147 148
e 149 237
e 150 237
e 151 237
e 157 158
e 157 159
e 157 160
e 157 161
e 158 159
e 158 160
e 158 161
e 159 160
e 159 161
e 160 161
e 164 165
e 164 233
e 165 233
e 166 167
e 168 237
e 169 237
e 170 237
e 178 179
e 178 234
e 179 234
e 180 181
e 182 237
e 183 237
e 184 237
e 190 191
e 190 192
e 190 193
e 190 194
e 191 192
e 191 193
e 191 194
e 192 193
e 192 194
e 193 194
e 197 198
e 197 235
e 198 235
e 199 200
e 201 237
e 202 237
e 203 237
e 209 210
e 209 211
e 209 212
e 209 213
e 209 214
e 209 215
e 209 216
e 209 217
e 209 223
e 209 225
e 209 236
e 210 211
e 210 212
e 210 213
e 210 214
e 210 215
e 210 216
e 210 217
e 210 223
e 210 225
e 210 236
e 211 212
e 211 213
e 211 214
e 211 215
e 211 216
e 211 217
e 211 223
e 211 225
e 211 236
e 212 213
e 212 214
e 212 215
e 212 216
e 212 217
e 212 223
e 212 225
e 212 236
e 213 214
e 213 215
e 213 216
e 213 217
e 213 223
e 213 225
e 213 236
e 214 215
e 214 216
e 214 217
e 214 223
e 214 225
e 214 236
e 215 216
e 215 217
e 215 223
e 215 225
e 215 236
e 216 217
e 216 223
e 216 225
e 216 236
e 217 223
e 217 225
e 217 236
e 218 237
e 219 237
e 220 237
e 221 237
